 &input 
  fildyn='ZnS-ZB.gamma', 
  asr='crystal',
  q(1)=0.01,
  q(2)=0,
  q(3)=0
 /
