 &control
    calculation  = 'nscf'
    prefix       = 'ZnS-RS',
    outdir       = 'outdir'
    pseudo_dir   = '~/Documents/quantum_simulations/PP_eff'
    tstress      = .true.,
    tprnfor      = .true.,
    verbosity    = 'low'
    disk_io      = 'low'
 /
 &system
    ibrav        = 0,
    celldm(1)    = 9.14565,
    nat          = 2,
    ntyp         = 2,
    nbnd         = 16,
    ecutwfc      = 80,      ! add energy cutoff from 'encut-test'
    ecutrho      = 500.0,
    occupations  = 'tetrahedra_opt'
 /
 &electrons
    diagonalization = 'david'
    mixing_mode     = 'plain'
    mixing_beta     = 0.4,
    conv_thr        = 1.0d-8,
 /
CELL_PARAMETERS {alat}
   0.499810140   0.499810140   0.000000000
   0.499810140   0.000000000   0.499810140
   0.000000000   0.499810140   0.499810140
ATOMIC_SPECIES
 Zn 65.38000 Zn_pbe_v1.uspp.F.UPF
 S  32.06750 s_pbe_v1.4.uspp.F.UPF
ATOMIC_POSITIONS {crystal}
 Zn  -0.000000000  -0.000000000   0.000000000
 S   0.500000000   0.500000000   0.500000000
K_POINTS automatic
 8 8 8 0 0 0             ! add kpoints from 'kpoints-test'
