 &control
    calculation  = 'nscf'
    prefix       = 'ZnS-RS',
    outdir       = 'outdir'
    pseudo_dir   = '~/Documents/quantum_simulations/PP_eff'
    tstress      = .false.,
    tprnfor      = .false.,
    verbosity    = 'low'
    disk_io      = 'low'
 /
 &system
    ibrav     	= 2,			! RS structure is fcc 
	a			= 4.83966770,	! lattice constant in Angstroms
    nat       	= 2, 			! number of atoms in the unit cell
    ntyp      	= 2,			! number of types of atoms in the unit cell
    nbnd      	= 16			! number of bands we want to calculate
    ecutwfc   	= 30,			! add energy cutoff from 'encut-test'
    ecutrho     = 500.0,
    occupations = 'smearing',
    smearing    = 'marzari-vanderbilt', 
    degauss     = 0.005
 /
 &electrons
    diagonalization = 'david'
    mixing_mode     = 'plain'
    mixing_beta     = 0.7,
    conv_thr        = 1.0d-8,
 /
ATOMIC_SPECIES
 Zn 65.380 Zn_pbe_v1.uspp.F.UPF
 S  32.065 s_pbe_v1.4.uspp.F.UPF
ATOMIC_POSITIONS crystal
 Zn 0 0 0
 S  0.5 0.5 0.5
K_POINTS automatic
 40 40 40 0 0 0
