 &control
    calculation  = 'bands'
    prefix       = 'ZnS-RS',
    outdir       = 'outdir'
    pseudo_dir   = '~/Documents/quantum_simulations/PP_eff'
 /
 &system
    ibrav        = 0,
    celldm(1)    = 9.14565,
    nat          = 2,
    ntyp         = 2,
    nbnd         = 16,
    ecutwfc      = 80,      ! add energy cutoff from 'encut-test'
    ecutrho      = 500.0,
    occupations  = 'tetrahedra_opt'
 /
 &electrons
    diagonalization = 'david'
    mixing_mode     = 'plain'
    mixing_beta     = 0.4,
    conv_thr        = 1.0d-8,
 /
CELL_PARAMETERS {alat}
   0.499810140   0.499810140   0.000000000
   0.499810140   0.000000000   0.499810140
   0.000000000   0.499810140   0.499810140
ATOMIC_SPECIES
 Zn 65.38000 Zn_pbe_v1.uspp.F.UPF
 S  32.06750 s_pbe_v1.4.uspp.F.UPF
ATOMIC_POSITIONS {crystal}
 Zn  -0.000000000  -0.000000000   0.000000000
 S   0.500000000   0.500000000   0.500000000
K_POINTS crystal
         402
        0.0000000000    0.0000000000    0.0000000000    1.0 ! G
        0.0079365079    0.0000000000    0.0079365079    1.0
        0.0158730159    0.0000000000    0.0158730159    1.0
        0.0238095238    0.0000000000    0.0238095238    1.0
        0.0317460317    0.0000000000    0.0317460317    1.0
        0.0396825397    0.0000000000    0.0396825397    1.0
        0.0476190476    0.0000000000    0.0476190476    1.0
        0.0555555556    0.0000000000    0.0555555556    1.0
        0.0634920635    0.0000000000    0.0634920635    1.0
        0.0714285714    0.0000000000    0.0714285714    1.0
        0.0793650794    0.0000000000    0.0793650794    1.0
        0.0873015873    0.0000000000    0.0873015873    1.0
        0.0952380952    0.0000000000    0.0952380952    1.0
        0.1031746032    0.0000000000    0.1031746032    1.0
        0.1111111111    0.0000000000    0.1111111111    1.0
        0.1190476190    0.0000000000    0.1190476190    1.0
        0.1269841270    0.0000000000    0.1269841270    1.0
        0.1349206349    0.0000000000    0.1349206349    1.0
        0.1428571429    0.0000000000    0.1428571429    1.0
        0.1507936508    0.0000000000    0.1507936508    1.0
        0.1587301587    0.0000000000    0.1587301587    1.0
        0.1666666667    0.0000000000    0.1666666667    1.0
        0.1746031746    0.0000000000    0.1746031746    1.0
        0.1825396825    0.0000000000    0.1825396825    1.0
        0.1904761905    0.0000000000    0.1904761905    1.0
        0.1984126984    0.0000000000    0.1984126984    1.0
        0.2063492063    0.0000000000    0.2063492063    1.0
        0.2142857143    0.0000000000    0.2142857143    1.0
        0.2222222222    0.0000000000    0.2222222222    1.0
        0.2301587302    0.0000000000    0.2301587302    1.0
        0.2380952381    0.0000000000    0.2380952381    1.0
        0.2460317460    0.0000000000    0.2460317460    1.0
        0.2539682540    0.0000000000    0.2539682540    1.0
        0.2619047619    0.0000000000    0.2619047619    1.0
        0.2698412698    0.0000000000    0.2698412698    1.0
        0.2777777778    0.0000000000    0.2777777778    1.0
        0.2857142857    0.0000000000    0.2857142857    1.0
        0.2936507937    0.0000000000    0.2936507937    1.0
        0.3015873016    0.0000000000    0.3015873016    1.0
        0.3095238095    0.0000000000    0.3095238095    1.0
        0.3174603175    0.0000000000    0.3174603175    1.0
        0.3253968254    0.0000000000    0.3253968254    1.0
        0.3333333333    0.0000000000    0.3333333333    1.0
        0.3412698413    0.0000000000    0.3412698413    1.0
        0.3492063492    0.0000000000    0.3492063492    1.0
        0.3571428571    0.0000000000    0.3571428571    1.0
        0.3650793651    0.0000000000    0.3650793651    1.0
        0.3730158730    0.0000000000    0.3730158730    1.0
        0.3809523810    0.0000000000    0.3809523810    1.0
        0.3888888889    0.0000000000    0.3888888889    1.0
        0.3968253968    0.0000000000    0.3968253968    1.0
        0.4047619048    0.0000000000    0.4047619048    1.0
        0.4126984127    0.0000000000    0.4126984127    1.0
        0.4206349206    0.0000000000    0.4206349206    1.0
        0.4285714286    0.0000000000    0.4285714286    1.0
        0.4365079365    0.0000000000    0.4365079365    1.0
        0.4444444444    0.0000000000    0.4444444444    1.0
        0.4523809524    0.0000000000    0.4523809524    1.0
        0.4603174603    0.0000000000    0.4603174603    1.0
        0.4682539683    0.0000000000    0.4682539683    1.0
        0.4761904762    0.0000000000    0.4761904762    1.0
        0.4841269841    0.0000000000    0.4841269841    1.0
        0.4920634921    0.0000000000    0.4920634921    1.0
        0.5000000000    0.0000000000    0.5000000000    1.0 ! X
        0.5000000000    0.0080645161    0.5080645161    1.0
        0.5000000000    0.0161290323    0.5161290323    1.0
        0.5000000000    0.0241935484    0.5241935484    1.0
        0.5000000000    0.0322580645    0.5322580645    1.0
        0.5000000000    0.0403225806    0.5403225806    1.0
        0.5000000000    0.0483870968    0.5483870968    1.0
        0.5000000000    0.0564516129    0.5564516129    1.0
        0.5000000000    0.0645161290    0.5645161290    1.0
        0.5000000000    0.0725806452    0.5725806452    1.0
        0.5000000000    0.0806451613    0.5806451613    1.0
        0.5000000000    0.0887096774    0.5887096774    1.0
        0.5000000000    0.0967741935    0.5967741935    1.0
        0.5000000000    0.1048387097    0.6048387097    1.0
        0.5000000000    0.1129032258    0.6129032258    1.0
        0.5000000000    0.1209677419    0.6209677419    1.0
        0.5000000000    0.1290322581    0.6290322581    1.0
        0.5000000000    0.1370967742    0.6370967742    1.0
        0.5000000000    0.1451612903    0.6451612903    1.0
        0.5000000000    0.1532258065    0.6532258065    1.0
        0.5000000000    0.1612903226    0.6612903226    1.0
        0.5000000000    0.1693548387    0.6693548387    1.0
        0.5000000000    0.1774193548    0.6774193548    1.0
        0.5000000000    0.1854838710    0.6854838710    1.0
        0.5000000000    0.1935483871    0.6935483871    1.0
        0.5000000000    0.2016129032    0.7016129032    1.0
        0.5000000000    0.2096774194    0.7096774194    1.0
        0.5000000000    0.2177419355    0.7177419355    1.0
        0.5000000000    0.2258064516    0.7258064516    1.0
        0.5000000000    0.2338709677    0.7338709677    1.0
        0.5000000000    0.2419354839    0.7419354839    1.0
        0.5000000000    0.2500000000    0.7500000000    1.0 ! W
        0.4943181818    0.2556818182    0.7500000000    1.0
        0.4886363636    0.2613636364    0.7500000000    1.0
        0.4829545455    0.2670454545    0.7500000000    1.0
        0.4772727273    0.2727272727    0.7500000000    1.0
        0.4715909091    0.2784090909    0.7500000000    1.0
        0.4659090909    0.2840909091    0.7500000000    1.0
        0.4602272727    0.2897727273    0.7500000000    1.0
        0.4545454545    0.2954545455    0.7500000000    1.0
        0.4488636364    0.3011363636    0.7500000000    1.0
        0.4431818182    0.3068181818    0.7500000000    1.0
        0.4375000000    0.3125000000    0.7500000000    1.0
        0.4318181818    0.3181818182    0.7500000000    1.0
        0.4261363636    0.3238636364    0.7500000000    1.0
        0.4204545455    0.3295454545    0.7500000000    1.0
        0.4147727273    0.3352272727    0.7500000000    1.0
        0.4090909091    0.3409090909    0.7500000000    1.0
        0.4034090909    0.3465909091    0.7500000000    1.0
        0.3977272727    0.3522727273    0.7500000000    1.0
        0.3920454545    0.3579545455    0.7500000000    1.0
        0.3863636364    0.3636363636    0.7500000000    1.0
        0.3806818182    0.3693181818    0.7500000000    1.0
        0.3750000000    0.3750000000    0.7500000000    1.0 ! K
        0.3693181818    0.3693181818    0.7386363636    1.0
        0.3636363636    0.3636363636    0.7272727273    1.0
        0.3579545455    0.3579545455    0.7159090909    1.0
        0.3522727273    0.3522727273    0.7045454545    1.0
        0.3465909091    0.3465909091    0.6931818182    1.0
        0.3409090909    0.3409090909    0.6818181818    1.0
        0.3352272727    0.3352272727    0.6704545455    1.0
        0.3295454545    0.3295454545    0.6590909091    1.0
        0.3238636364    0.3238636364    0.6477272727    1.0
        0.3181818182    0.3181818182    0.6363636364    1.0
        0.3125000000    0.3125000000    0.6250000000    1.0
        0.3068181818    0.3068181818    0.6136363636    1.0
        0.3011363636    0.3011363636    0.6022727273    1.0
        0.2954545455    0.2954545455    0.5909090909    1.0
        0.2897727273    0.2897727273    0.5795454545    1.0
        0.2840909091    0.2840909091    0.5681818182    1.0
        0.2784090909    0.2784090909    0.5568181818    1.0
        0.2727272727    0.2727272727    0.5454545455    1.0
        0.2670454545    0.2670454545    0.5340909091    1.0
        0.2613636364    0.2613636364    0.5227272727    1.0
        0.2556818182    0.2556818182    0.5113636364    1.0
        0.2500000000    0.2500000000    0.5000000000    1.0
        0.2443181818    0.2443181818    0.4886363636    1.0
        0.2386363636    0.2386363636    0.4772727273    1.0
        0.2329545455    0.2329545455    0.4659090909    1.0
        0.2272727273    0.2272727273    0.4545454545    1.0
        0.2215909091    0.2215909091    0.4431818182    1.0
        0.2159090909    0.2159090909    0.4318181818    1.0
        0.2102272727    0.2102272727    0.4204545455    1.0
        0.2045454545    0.2045454545    0.4090909091    1.0
        0.1988636364    0.1988636364    0.3977272727    1.0
        0.1931818182    0.1931818182    0.3863636364    1.0
        0.1875000000    0.1875000000    0.3750000000    1.0
        0.1818181818    0.1818181818    0.3636363636    1.0
        0.1761363636    0.1761363636    0.3522727273    1.0
        0.1704545455    0.1704545455    0.3409090909    1.0
        0.1647727273    0.1647727273    0.3295454545    1.0
        0.1590909091    0.1590909091    0.3181818182    1.0
        0.1534090909    0.1534090909    0.3068181818    1.0
        0.1477272727    0.1477272727    0.2954545455    1.0
        0.1420454545    0.1420454545    0.2840909091    1.0
        0.1363636364    0.1363636364    0.2727272727    1.0
        0.1306818182    0.1306818182    0.2613636364    1.0
        0.1250000000    0.1250000000    0.2500000000    1.0
        0.1193181818    0.1193181818    0.2386363636    1.0
        0.1136363636    0.1136363636    0.2272727273    1.0
        0.1079545455    0.1079545455    0.2159090909    1.0
        0.1022727273    0.1022727273    0.2045454545    1.0
        0.0965909091    0.0965909091    0.1931818182    1.0
        0.0909090909    0.0909090909    0.1818181818    1.0
        0.0852272727    0.0852272727    0.1704545455    1.0
        0.0795454545    0.0795454545    0.1590909091    1.0
        0.0738636364    0.0738636364    0.1477272727    1.0
        0.0681818182    0.0681818182    0.1363636364    1.0
        0.0625000000    0.0625000000    0.1250000000    1.0
        0.0568181818    0.0568181818    0.1136363636    1.0
        0.0511363636    0.0511363636    0.1022727273    1.0
        0.0454545455    0.0454545455    0.0909090909    1.0
        0.0397727273    0.0397727273    0.0795454545    1.0
        0.0340909091    0.0340909091    0.0681818182    1.0
        0.0284090909    0.0284090909    0.0568181818    1.0
        0.0227272727    0.0227272727    0.0454545455    1.0
        0.0170454545    0.0170454545    0.0340909091    1.0
        0.0113636364    0.0113636364    0.0227272727    1.0
        0.0056818182    0.0056818182    0.0113636364    1.0
        0.0000000000    0.0000000000    0.0000000000    1.0 ! G
        0.0092592593    0.0092592593    0.0092592593    1.0
        0.0185185185    0.0185185185    0.0185185185    1.0
        0.0277777778    0.0277777778    0.0277777778    1.0
        0.0370370370    0.0370370370    0.0370370370    1.0
        0.0462962963    0.0462962963    0.0462962963    1.0
        0.0555555556    0.0555555556    0.0555555556    1.0
        0.0648148148    0.0648148148    0.0648148148    1.0
        0.0740740741    0.0740740741    0.0740740741    1.0
        0.0833333333    0.0833333333    0.0833333333    1.0
        0.0925925926    0.0925925926    0.0925925926    1.0
        0.1018518519    0.1018518519    0.1018518519    1.0
        0.1111111111    0.1111111111    0.1111111111    1.0
        0.1203703704    0.1203703704    0.1203703704    1.0
        0.1296296296    0.1296296296    0.1296296296    1.0
        0.1388888889    0.1388888889    0.1388888889    1.0
        0.1481481481    0.1481481481    0.1481481481    1.0
        0.1574074074    0.1574074074    0.1574074074    1.0
        0.1666666667    0.1666666667    0.1666666667    1.0
        0.1759259259    0.1759259259    0.1759259259    1.0
        0.1851851852    0.1851851852    0.1851851852    1.0
        0.1944444444    0.1944444444    0.1944444444    1.0
        0.2037037037    0.2037037037    0.2037037037    1.0
        0.2129629630    0.2129629630    0.2129629630    1.0
        0.2222222222    0.2222222222    0.2222222222    1.0
        0.2314814815    0.2314814815    0.2314814815    1.0
        0.2407407407    0.2407407407    0.2407407407    1.0
        0.2500000000    0.2500000000    0.2500000000    1.0
        0.2592592593    0.2592592593    0.2592592593    1.0
        0.2685185185    0.2685185185    0.2685185185    1.0
        0.2777777778    0.2777777778    0.2777777778    1.0
        0.2870370370    0.2870370370    0.2870370370    1.0
        0.2962962963    0.2962962963    0.2962962963    1.0
        0.3055555556    0.3055555556    0.3055555556    1.0
        0.3148148148    0.3148148148    0.3148148148    1.0
        0.3240740741    0.3240740741    0.3240740741    1.0
        0.3333333333    0.3333333333    0.3333333333    1.0
        0.3425925926    0.3425925926    0.3425925926    1.0
        0.3518518519    0.3518518519    0.3518518519    1.0
        0.3611111111    0.3611111111    0.3611111111    1.0
        0.3703703704    0.3703703704    0.3703703704    1.0
        0.3796296296    0.3796296296    0.3796296296    1.0
        0.3888888889    0.3888888889    0.3888888889    1.0
        0.3981481481    0.3981481481    0.3981481481    1.0
        0.4074074074    0.4074074074    0.4074074074    1.0
        0.4166666667    0.4166666667    0.4166666667    1.0
        0.4259259259    0.4259259259    0.4259259259    1.0
        0.4351851852    0.4351851852    0.4351851852    1.0
        0.4444444444    0.4444444444    0.4444444444    1.0
        0.4537037037    0.4537037037    0.4537037037    1.0
        0.4629629630    0.4629629630    0.4629629630    1.0
        0.4722222222    0.4722222222    0.4722222222    1.0
        0.4814814815    0.4814814815    0.4814814815    1.0
        0.4907407407    0.4907407407    0.4907407407    1.0
        0.5000000000    0.5000000000    0.5000000000    1.0 ! L
        0.5032894737    0.4934210526    0.5032894737    1.0
        0.5065789474    0.4868421053    0.5065789474    1.0
        0.5098684211    0.4802631579    0.5098684211    1.0
        0.5131578947    0.4736842105    0.5131578947    1.0
        0.5164473684    0.4671052632    0.5164473684    1.0
        0.5197368421    0.4605263158    0.5197368421    1.0
        0.5230263158    0.4539473684    0.5230263158    1.0
        0.5263157895    0.4473684211    0.5263157895    1.0
        0.5296052632    0.4407894737    0.5296052632    1.0
        0.5328947368    0.4342105263    0.5328947368    1.0
        0.5361842105    0.4276315789    0.5361842105    1.0
        0.5394736842    0.4210526316    0.5394736842    1.0
        0.5427631579    0.4144736842    0.5427631579    1.0
        0.5460526316    0.4078947368    0.5460526316    1.0
        0.5493421053    0.4013157895    0.5493421053    1.0
        0.5526315789    0.3947368421    0.5526315789    1.0
        0.5559210526    0.3881578947    0.5559210526    1.0
        0.5592105263    0.3815789474    0.5592105263    1.0
        0.5625000000    0.3750000000    0.5625000000    1.0
        0.5657894737    0.3684210526    0.5657894737    1.0
        0.5690789474    0.3618421053    0.5690789474    1.0
        0.5723684211    0.3552631579    0.5723684211    1.0
        0.5756578947    0.3486842105    0.5756578947    1.0
        0.5789473684    0.3421052632    0.5789473684    1.0
        0.5822368421    0.3355263158    0.5822368421    1.0
        0.5855263158    0.3289473684    0.5855263158    1.0
        0.5888157895    0.3223684211    0.5888157895    1.0
        0.5921052632    0.3157894737    0.5921052632    1.0
        0.5953947368    0.3092105263    0.5953947368    1.0
        0.5986842105    0.3026315789    0.5986842105    1.0
        0.6019736842    0.2960526316    0.6019736842    1.0
        0.6052631579    0.2894736842    0.6052631579    1.0
        0.6085526316    0.2828947368    0.6085526316    1.0
        0.6118421053    0.2763157895    0.6118421053    1.0
        0.6151315789    0.2697368421    0.6151315789    1.0
        0.6184210526    0.2631578947    0.6184210526    1.0
        0.6217105263    0.2565789474    0.6217105263    1.0
        0.6250000000    0.2500000000    0.6250000000    1.0 ! U
        0.6193181818    0.2500000000    0.6306818182    1.0
        0.6136363636    0.2500000000    0.6363636364    1.0
        0.6079545455    0.2500000000    0.6420454545    1.0
        0.6022727273    0.2500000000    0.6477272727    1.0
        0.5965909091    0.2500000000    0.6534090909    1.0
        0.5909090909    0.2500000000    0.6590909091    1.0
        0.5852272727    0.2500000000    0.6647727273    1.0
        0.5795454545    0.2500000000    0.6704545455    1.0
        0.5738636364    0.2500000000    0.6761363636    1.0
        0.5681818182    0.2500000000    0.6818181818    1.0
        0.5625000000    0.2500000000    0.6875000000    1.0
        0.5568181818    0.2500000000    0.6931818182    1.0
        0.5511363636    0.2500000000    0.6988636364    1.0
        0.5454545455    0.2500000000    0.7045454545    1.0
        0.5397727273    0.2500000000    0.7102272727    1.0
        0.5340909091    0.2500000000    0.7159090909    1.0
        0.5284090909    0.2500000000    0.7215909091    1.0
        0.5227272727    0.2500000000    0.7272727273    1.0
        0.5170454545    0.2500000000    0.7329545455    1.0
        0.5113636364    0.2500000000    0.7386363636    1.0
        0.5056818182    0.2500000000    0.7443181818    1.0
        0.5000000000    0.2500000000    0.7500000000    1.0 ! W
        0.5000000000    0.2556818182    0.7443181818    1.0
        0.5000000000    0.2613636364    0.7386363636    1.0
        0.5000000000    0.2670454545    0.7329545455    1.0
        0.5000000000    0.2727272727    0.7272727273    1.0
        0.5000000000    0.2784090909    0.7215909091    1.0
        0.5000000000    0.2840909091    0.7159090909    1.0
        0.5000000000    0.2897727273    0.7102272727    1.0
        0.5000000000    0.2954545455    0.7045454545    1.0
        0.5000000000    0.3011363636    0.6988636364    1.0
        0.5000000000    0.3068181818    0.6931818182    1.0
        0.5000000000    0.3125000000    0.6875000000    1.0
        0.5000000000    0.3181818182    0.6818181818    1.0
        0.5000000000    0.3238636364    0.6761363636    1.0
        0.5000000000    0.3295454545    0.6704545455    1.0
        0.5000000000    0.3352272727    0.6647727273    1.0
        0.5000000000    0.3409090909    0.6590909091    1.0
        0.5000000000    0.3465909091    0.6534090909    1.0
        0.5000000000    0.3522727273    0.6477272727    1.0
        0.5000000000    0.3579545455    0.6420454545    1.0
        0.5000000000    0.3636363636    0.6363636364    1.0
        0.5000000000    0.3693181818    0.6306818182    1.0
        0.5000000000    0.3750000000    0.6250000000    1.0
        0.5000000000    0.3806818182    0.6193181818    1.0
        0.5000000000    0.3863636364    0.6136363636    1.0
        0.5000000000    0.3920454545    0.6079545455    1.0
        0.5000000000    0.3977272727    0.6022727273    1.0
        0.5000000000    0.4034090909    0.5965909091    1.0
        0.5000000000    0.4090909091    0.5909090909    1.0
        0.5000000000    0.4147727273    0.5852272727    1.0
        0.5000000000    0.4204545455    0.5795454545    1.0
        0.5000000000    0.4261363636    0.5738636364    1.0
        0.5000000000    0.4318181818    0.5681818182    1.0
        0.5000000000    0.4375000000    0.5625000000    1.0
        0.5000000000    0.4431818182    0.5568181818    1.0
        0.5000000000    0.4488636364    0.5511363636    1.0
        0.5000000000    0.4545454545    0.5454545455    1.0
        0.5000000000    0.4602272727    0.5397727273    1.0
        0.5000000000    0.4659090909    0.5340909091    1.0
        0.5000000000    0.4715909091    0.5284090909    1.0
        0.5000000000    0.4772727273    0.5227272727    1.0
        0.5000000000    0.4829545455    0.5170454545    1.0
        0.5000000000    0.4886363636    0.5113636364    1.0
        0.5000000000    0.4943181818    0.5056818182    1.0
        0.5000000000    0.5000000000    0.5000000000    1.0 ! L
        0.4967105263    0.4967105263    0.5065789474    1.0
        0.4934210526    0.4934210526    0.5131578947    1.0
        0.4901315789    0.4901315789    0.5197368421    1.0
        0.4868421053    0.4868421053    0.5263157895    1.0
        0.4835526316    0.4835526316    0.5328947368    1.0
        0.4802631579    0.4802631579    0.5394736842    1.0
        0.4769736842    0.4769736842    0.5460526316    1.0
        0.4736842105    0.4736842105    0.5526315789    1.0
        0.4703947368    0.4703947368    0.5592105263    1.0
        0.4671052632    0.4671052632    0.5657894737    1.0
        0.4638157895    0.4638157895    0.5723684211    1.0
        0.4605263158    0.4605263158    0.5789473684    1.0
        0.4572368421    0.4572368421    0.5855263158    1.0
        0.4539473684    0.4539473684    0.5921052632    1.0
        0.4506578947    0.4506578947    0.5986842105    1.0
        0.4473684211    0.4473684211    0.6052631579    1.0
        0.4440789474    0.4440789474    0.6118421053    1.0
        0.4407894737    0.4407894737    0.6184210526    1.0
        0.4375000000    0.4375000000    0.6250000000    1.0
        0.4342105263    0.4342105263    0.6315789474    1.0
        0.4309210526    0.4309210526    0.6381578947    1.0
        0.4276315789    0.4276315789    0.6447368421    1.0
        0.4243421053    0.4243421053    0.6513157895    1.0
        0.4210526316    0.4210526316    0.6578947368    1.0
        0.4177631579    0.4177631579    0.6644736842    1.0
        0.4144736842    0.4144736842    0.6710526316    1.0
        0.4111842105    0.4111842105    0.6776315789    1.0
        0.4078947368    0.4078947368    0.6842105263    1.0
        0.4046052632    0.4046052632    0.6907894737    1.0
        0.4013157895    0.4013157895    0.6973684211    1.0
        0.3980263158    0.3980263158    0.7039473684    1.0
        0.3947368421    0.3947368421    0.7105263158    1.0
        0.3914473684    0.3914473684    0.7171052632    1.0
        0.3881578947    0.3881578947    0.7236842105    1.0
        0.3848684211    0.3848684211    0.7302631579    1.0
        0.3815789474    0.3815789474    0.7368421053    1.0
        0.3782894737    0.3782894737    0.7434210526    1.0
        0.3750000000    0.3750000000    0.7500000000    1.0 ! K
        0.6250000000    0.2500000000    0.6250000000    1.0 ! U
        0.6193181818    0.2386363636    0.6193181818    1.0
        0.6136363636    0.2272727273    0.6136363636    1.0
        0.6079545455    0.2159090909    0.6079545455    1.0
        0.6022727273    0.2045454545    0.6022727273    1.0
        0.5965909091    0.1931818182    0.5965909091    1.0
        0.5909090909    0.1818181818    0.5909090909    1.0
        0.5852272727    0.1704545455    0.5852272727    1.0
        0.5795454545    0.1590909091    0.5795454545    1.0
        0.5738636364    0.1477272727    0.5738636364    1.0
        0.5681818182    0.1363636364    0.5681818182    1.0
        0.5625000000    0.1250000000    0.5625000000    1.0
        0.5568181818    0.1136363636    0.5568181818    1.0
        0.5511363636    0.1022727273    0.5511363636    1.0
        0.5454545455    0.0909090909    0.5454545455    1.0
        0.5397727273    0.0795454545    0.5397727273    1.0
        0.5340909091    0.0681818182    0.5340909091    1.0
        0.5284090909    0.0568181818    0.5284090909    1.0
        0.5227272727    0.0454545455    0.5227272727    1.0
        0.5170454545    0.0340909091    0.5170454545    1.0
        0.5113636364    0.0227272727    0.5113636364    1.0
        0.5056818182    0.0113636364    0.5056818182    1.0
        0.5000000000   -0.0000000000    0.5000000000    1.0 ! X
