#************************************************************************************
#*                   Generated by cif2cell 2.0.0 2020-08-02 16:30                   *
#*  T. Bjorkman, Comp. Phys. Commun. 182, 1183-1186 (2011). Please cite generously. *
#*                                                                                  *
#*                                     ZnS   ()                                     *
#*             Failed to get author information, No journal information             *
#************************************************************************************

&SYSTEM
  ibrav = 0
  celldm(1) =    9.14565
  nat = 2
  ntyp = 2
/
CELL_PARAMETERS {alat}
  0.500000000000000   0.500000000000000   0.000000000000000 
  0.500000000000000   0.000000000000000   0.500000000000000 
  0.000000000000000   0.500000000000000   0.500000000000000 
ATOMIC_SPECIES
   S   32.06750   S.uspp.F.UPF
  Zn   65.38000  Zn.uspp.F.UPF
ATOMIC_POSITIONS {crystal}
Zn   0.000000000000000   0.000000000000000   0.000000000000000 
 S   0.500000000000000   0.500000000000000   0.500000000000000 

# k-space resolution ~0.2/A.
K_POINTS automatic
11 11 11  0 0 0
