 &control
    calculation  = 'scf'
    prefix       = 'ZnS-ZB',
    outdir       = 'outdir'
    pseudo_dir   = '~/Documents/quantum_simulations/PP_eff'
    restart_mode = 'from_scratch',
    tstress      = .false.
    tprnfor      = .false.
 /
 &system
    ibrav     	= 2,			! ZB structure is fcc 
	a			= 5.11240608,	! lattice constant in Angstroms
    nat       	= 2, 			! number of atoms in the unit cell
    ntyp      	= 2,			! number of types of atoms in the unit cell
    ecutwfc   	= 30,			! add energy cutoff from 'encut-test'
    ecutrho   = 500.0,
    occupations = 'smearing',
    smearing    = 'marzari-vanderbilt', 
    degauss     = 0.005
 /
 &electrons
    diagonalization = 'david'
    mixing_mode     = 'plain'
    mixing_beta     = 0.4,
    conv_thr        = 1.0d-8,
 /
ATOMIC_SPECIES
 Zn 65.380 Zn_pbe_v1.uspp.F.UPF
 S 32.065 s_pbe_v1.4.uspp.F.UPF
ATOMIC_POSITIONS crystal
 Zn 0 0 0
 S 0.25 0.25 0.25
K_POINTS automatic
 5 5 5 0 0 0					! add number of k-points from kpoints-test
