&dos
  outdir   = "outdir",
  prefix   = "ZnS-ZB"
  fildos   = "ZnS-ZB.dos",
  Emin     = -10.0,
  Emax     = 20.0,
  DeltaE   = 0.05
/
