 &input 
  fildyn='ZnS-RS.gamma', 
  asr='crystal' 
 /
