phonons of ZnS-RS at Gamma point
 &inputph
  tr2_ph   = 5.0d-16,
  prefix   = 'ZnS-RS',
  epsil    = .false.,                   ! because RS phase is metal
  trans    = .true.,
  asr      = .true.
  amass(1) = 65.380,                    ! mass of Zn
  amass(2) = 32.065,                    ! mass of S
  outdir   = 'calc',
  fildyn   = 'ZnS-RS.gamma',
 /
0.0 0.0 0.0
