 &input 
  fildyn='ZnS-ZB.gamma', 
  asr='crystal' 
 /
